tsp_instances/TSP50/instance116.tsp
NODE_COORD_SECTION
0 157 14
1 184 142
2 6 54
3 152 165
4 105 62
5 144 57
6 111 158
7 56 182
8 140 113
9 0 186
10 134 20
11 183 192
12 25 103
13 0 95
14 192 86
15 190 163
16 104 70
17 24 132
18 45 33
19 93 175
20 11 88
21 24 4
22 184 13
23 57 132
24 112 101
25 188 133
26 102 86
27 39 164
28 126 1
29 188 169
30 36 184
31 50 76
32 173 95
33 185 76
34 157 142
35 70 119
36 164 3
37 66 153
38 172 110
39 176 116
40 39 100
41 6 81
42 139 141
43 82 99
44 96 102
45 169 39
46 26 109
47 159 174
48 110 197
49 149 10
