tsp_instances/TSP50/instance116.opt.tour
TOUR_SECTION
1
37
23
46
34
15
33
39
40
26
2
16
30
12
48
4
35
9
43
7
49
20
38
8
31
10
28
18
47
13
14
21
42
3
22
19
32
41
24
36
44
45
25
27
17
5
6
11
29
50
-1